unknown
(model
; cardinality of BoundSet is 6
(declare-sort BoundSet 0)
; rep: @uc_BoundSet_0
; rep: @uc_BoundSet_1
; rep: @uc_BoundSet_2
; rep: @uc_BoundSet_3
; rep: @uc_BoundSet_4
; rep: @uc_BoundSet_5
; cardinality of UnboundSet is 1
(declare-sort UnboundSet 0)
(declare-fun groundTerm_7 () UnboundSet)
(define-fun IsTan ((BOUND_VARIABLE_514 BoundSet)) Bool true)
(define-fun Chases ((BOUND_VARIABLE_521 BoundSet) (BOUND_VARIABLE_522 BoundSet)) Bool true)
(define-fun IsBlackAndWhite ((BOUND_VARIABLE_514 BoundSet)) Bool true)
(define-fun IsDog ((BOUND_VARIABLE_514 BoundSet)) Bool true)
(define-fun IsChasing ((BOUND_VARIABLE_521 BoundSet) (BOUND_VARIABLE_522 BoundSet)) Bool false)
)
sat
(model
; cardinality of BoundSet is 1
(declare-sort BoundSet 0)
; rep: @uc_BoundSet_0
; cardinality of UnboundSet is 1
(declare-sort UnboundSet 0)
(declare-fun groundTerm_10 () UnboundSet)
(define-fun IsTan ((BOUND_VARIABLE_557 BoundSet)) Bool true)
(define-fun Chases ((BOUND_VARIABLE_564 BoundSet) (BOUND_VARIABLE_565 BoundSet)) Bool true)
(define-fun IsBlackAndWhite ((BOUND_VARIABLE_557 BoundSet)) Bool true)
(define-fun IsDog ((BOUND_VARIABLE_557 BoundSet)) Bool true)
(define-fun IsChasing ((BOUND_VARIABLE_564 BoundSet) (BOUND_VARIABLE_565 BoundSet)) Bool false)
)
